nNurses = 158;
nHours = 34;
minHours = 4;
maxHours = 8;
maxConsec = 6;
maxPresence = 31;
demand = [12, 17, 15, 14, 9, 6, 8, 11, 15, 16, 11, 14, 11, 11, 14, 11, 9, 8, 11, 11, 14, 11, 9, 6, 10, 8, 11, 7, 11, 8, 10, 15, 15, 18];
